c User generated cnf file
p cnf 11 19
-10 11 6 0 
2 -6 11 0 
10 -4 3 0 
7 10 -4 0 
-9 1 4 0 
4 10 -6 0 
10 -2 11 0 
-3 7 6 0 
4 -3 3 0 
7 -1 10 0 
2 7 -4 0 
-1 4 4 0 
7 -7 1 0 
-4 10 7 0 
8 11 -4 0 
8 -9 6 0 
-8 2 5 0 
-7 6 5 0 
9 -8 11 0 
